NAME : hk48Preorder.2237.tour
COMMENT : Length = 2237
COMMENT : Found by LKH [Keld Helsgaun] Fri May  1 23:58:05 2020
TYPE : TOUR
DIMENSION : 48
TOUR_SECTION
1
19
37
27
44
39
45
46
4
42
16
11
20
31
17
35
24
48
26
29
41
28
13
22
12
18
14
38
7
47
8
6
34
36
40
10
9
30
23
3
25
32
5
33
21
43
15
2
-1
EOF
